
Gurobi 9.1.2 (linux64) logging started Thu Jun 16 03:46:04 2022

Changed value of parameter LogFile to ls2_sym_v-(2, 1).log
   Prev:   Default: 
Changed value of parameter MIPFocus to 1
   Prev: 0  Min: 0  Max: 3  Default: 0
Changed value of parameter TimeLimit to 10800.0
   Prev: inf  Min: 0.0  Max: inf  Default: inf
Warning: variable name "X[(4, 3),(2, 3)]" has a space
Warning: constraint name "flow-constr-t0-v(4, 0)" has a space
Warning: to let Gurobi read it back, use rlp format
Gurobi Optimizer version 9.1.2 build v9.1.2rc0 (linux64)
Thread count: 32 physical cores, 64 logical processors, using up to 32 threads
Optimize a model with 4551 rows, 4096 columns and 15472 nonzeros
Model fingerprint: 0xabfc43e6
Variable types: 512 continuous, 3584 integer (3584 binary)
Coefficient statistics:
  Matrix range     [1e+00, 7e+04]
  Objective range  [1e-01, 1e-01]
  Bounds range     [1e+00, 3e+04]
  RHS range        [1e+00, 7e+04]
Presolve removed 451 rows and 480 columns
Presolve time: 0.08s
Presolved: 4100 rows, 3616 columns, 21049 nonzeros
Variable types: 512 continuous, 3104 integer (3104 binary)

Root relaxation: objective 6.400000e+01, 143 iterations, 0.00 seconds

    Nodes    |    Current Node    |     Objective Bounds      |     Work
 Expl Unexpl |  Obj  Depth IntInf | Incumbent    BestBd   Gap | It/Node Time

     0     0   64.00000    0   32          -   64.00000      -     -    0s
H    0     0                     125.8750000   64.00000  49.2%     -    0s
H    0     0                     125.6250000   64.00000  49.1%     -    0s
H    0     0                     119.5000000   64.00000  46.4%     -    0s
     0     0   64.00000    0   89  119.50000   64.00000  46.4%     -    0s
H    0     0                     112.7500000   64.00000  43.2%     -    0s
     0     0   64.00000    0   94  112.75000   64.00000  43.2%     -    0s
H    0     0                      85.1250000   64.00000  24.8%     -    0s
H    0     0                      82.6250000   64.00000  22.5%     -    0s
H    0     0                      81.2500000   64.00000  21.2%     -    0s
H    0     0                      80.8750000   64.00000  20.9%     -    0s
     0     0   64.00000    0   26   80.87500   64.00000  20.9%     -    0s
H    0     0                      80.2500000   64.00000  20.2%     -    0s
H    0     0                      79.7500000   64.00000  19.7%     -    1s
H    0     0                      75.5937500   64.00000  15.3%     -    1s
H    0     0                      74.1250000   64.00000  13.7%     -    1s
H    0     0                      72.9375000   64.00000  12.3%     -    1s
     0     0   64.00000    0   30   72.93750   64.00000  12.3%     -    1s
H    0     0                      72.1250000   64.00000  11.3%     -    1s
     0     0   64.00000    0   34   72.12500   64.00000  11.3%     -    1s
H    0     0                      72.0000000   64.00000  11.1%     -    1s
     0     0   64.00000    0   22   72.00000   64.00000  11.1%     -    1s
     0     0   64.00000    0   29   72.00000   64.00000  11.1%     -    1s
     0     0   64.00000    0   32   72.00000   64.00000  11.1%     -    1s
     0     2   64.00000    0   32   72.00000   64.00000  11.1%     -    1s
H   95   128                      70.7500000   64.00000  9.54%  20.3    4s
H  102   128                      70.2500000   64.00000  8.90%  19.2    4s
H  159   192                      70.0000000   64.00000  8.57%  13.5    7s
H  161   192                      69.0000000   64.00000  7.25%  13.4    7s
H  162   192                      68.6666667   64.00000  6.80%  13.4    7s
H  166   192                      68.2500000   64.00000  6.23%  13.2    7s
H  170   192                      68.0833333   64.00000  6.00%  13.2    7s
H  185   192                      67.5000000   64.00000  5.19%  12.6    7s
H  223   255                      67.1250000   64.00000  4.66%   267    9s
H  238   255                      67.0817308   64.00000  4.59%   251    9s
H  634   737                      66.8000000   64.00000  4.19%   118   10s
H  635   737                      66.6500000   64.00000  3.98%   118   10s
H  721   737                      66.6000000   64.00000  3.90%   105   10s
H  822  1675                      66.1000000   64.00000  3.18%  96.4   12s
H 1027  1675                      66.0000000   64.00000  3.03%  86.0   12s
H 1800  8568                      65.9999999   64.00000  3.03%  61.9   14s
H 6293  8568                      65.9999998   64.00000  3.03%  37.2   14s
  8678  8599   64.00000  263   67   66.00000   64.00000  3.03%  33.3   18s
H 8703  8599                      65.9999600   64.00000  3.03%  33.2   18s
  8710 13127   64.00000  264   67   65.99996   64.00000  3.03%  33.2   21s
 21476 20758   64.00000  101   80   65.99996   64.00000  3.03%  23.7   25s
 21575 20857   64.00000   19  107   65.99996   64.00000  3.03%   1.6   31s
 21671 20921   64.00000   21   96   65.99996   64.00000  3.03%   1.7   35s
 22018 21151   64.00000   26  100   65.99996   64.00000  3.03%   2.0   40s
 24743 26806   64.00000   69   81   65.99996   64.00000  3.03%   4.9   45s
 32230 27206   64.00000   96   93   65.99996   64.00000  3.03%  11.3   51s
 34902 28548   64.00000  174   91   65.99996   64.00000  3.03%  13.8   55s
 37761 33831 infeasible  263        65.99996   64.00000  3.03%  15.4   60s
 50740 36368   65.50000  316  119   65.99996   64.00000  3.03%  22.3   65s
 55062 38515   64.00000  144  133   65.99996   64.00000  3.03%  23.7   72s
H57461 38985                      65.8750000   64.00000  2.85%  25.0   74s
H58283 35880                      65.2500000   64.00000  1.92%  25.2   76s
H58296 34775                      65.1250000   64.00000  1.73%  25.2   76s
H58400 34457                      65.0000000   64.00000  1.54%  25.3   78s
H60001 33077                      64.8937500   64.00000  1.38%  25.4   78s
H61775 31565                      64.8421053   64.00000  1.30%  26.4   78s
 62026 31188   64.00000  277  133   64.84211   64.00000  1.30%  26.4   81s
H62034 29759                      64.6964286   64.00000  1.08%  26.4   81s
H62048 28886                      64.6000000   64.00000  0.93%  26.4   81s
H62055 27485                      64.5000000   64.00000  0.78%  26.4   81s
H62075 27485                      64.4375000   64.00000  0.68%  26.4   81s
 62087 28123   64.00000  278  133   64.43750   64.00000  0.68%  26.4   85s
H62115 27920                      64.3333333   64.00000  0.52%  26.4   85s
H62193 26050                      64.1249999   64.00000  0.19%  26.4   85s
H62447  2438                      64.0000000   64.00000  0.00%  26.6   85s

Cutting planes:
  Learned: 49
  Gomory: 2
  Cover: 140
  Implied bound: 102
  Clique: 91
  MIR: 219
  Flow cover: 447
  GUB cover: 3
  Mod-K: 1
  RLT: 34
  Relax-and-lift: 431

Explored 62901 nodes (2206917 simplex iterations) in 85.42 seconds
Thread count was 32 (of 64 available processors)

Solution count 10: 64 64.125 64.3333 ... 65

Optimal solution found (tolerance 1.00e-04)
Best objective 6.400000000000e+01, best bound 6.400000000000e+01, gap 0.0000%
